NAME : cgl_76.9399.tour
COMMENT : Length = 9399
COMMENT : Found by LKH-3 [Keld Helsgaun] Fri Nov  8 17:38:21 2024
TYPE : TOUR
DIMENSION : 77
TOUR_SECTION
72
76
75
33
35
38
34
37
36
39
40
41
43
44
42
46
45
32
29
30
31
26
24
25
23
22
21
27
28
20
19
18
17
16
15
14
13
10
12
11
4
5
6
7
9
8
1
2
3
74
73
77
59
58
60
61
57
56
54
55
53
64
63
62
52
50
51
66
65
47
49
48
68
67
69
70
71
-1
EOF
